[[14, 59, 66, 11, 65, 38, 10, 31, 58, 72, 12, 40, 39, 9, 25, 55, 18, 50, 32, 44, 3, 24, 49, 16, 63, 23, 56, 41, 43, 42, 64], [22, 61, 28, 62, 33, 73, 2, 74, 30, 48, 21, 47, 69, 36, 71, 60, 70, 20, 37, 5, 15, 57, 29, 13, 27, 52, 45, 4, 75, 68, 6, 51, 17, 76, 26, 67, 34, 46, 7, 8, 54, 19, 35, 53]]